(set-option :produce-models true)
(set-logic QF_AUFBV)
(declare-sort foobar 0)
(declare-fun foobar_foo (foobar) Bool)
(declare-fun fb1 () foobar)
(declare-fun fb2 () foobar)
(declare-fun fb3 () foobar)
(assert (distinct (foobar_foo fb1) (foobar_foo fb2) (foobar_foo fb3)))
(check-sat)
